10J3M/DAT/10J3MUTX-1.dat
10 3
44.679 6.6842
27.068 5.2027
34.8215 5.901
39.4606 6.2818
30.6216 5.5337
4.6236 2.1503
3.7996 1.9493
36.0811 6.0068
43.8673 6.6232
33.9909 5.8302
13.0408