10J3M/SOL/10J3MUTX-1.sol
solution status: optimal solution found
objective value:                     73.8297294440393
x#2#1                               0.509632760170632 	(obj:0)
x#2#3                               0.490367239829368 	(obj:0)
x#3#2                                               1 	(obj:0)
x#4#3                              0.0848005000520889 	(obj:0)
x#5#1                               0.507540109912298 	(obj:0)
x#5#3                               0.492459890087702 	(obj:0)
x#6#2                               0.782614181399243 	(obj:0)
x#6#3                               0.217385818600757 	(obj:0)
x#7#1                                               1 	(obj:0)
x#10#2                              0.237490924628031 	(obj:0)
x#10#3                              0.762509075371969 	(obj:0)
z                                    73.8297294440393 	(obj:1)
